take2.lp
Minimize
  .67 x01 + .67 x10 + .67 x12 + .67 x21 + .67 x23 + .67 x32 + .67 x34 + .67 x43 + .67 x40 + .67 x04 + .67 x03 + .67 x30
  + 1 c01 + 0 c11 + 1 c21 + 2 c31 + 2 c41 + 1 c04 + 2 c14 + 2 c24 + 1 c34 + 0 c44
Subject To
  c01 + c11 + c21 + c31 + c41 = 1
  c04 + c14 + c24 + c34 + c44 = 1
  x10 + x20 + x30 + x40 - x01 - x02 - x03 - x04 = 0
  x01 + x21 + x31 + x41 - x10 - x12 - x13 - x14 = 0
  x02 + x12 + x32 + x42 - x20 - x21 - x23 - x24 = 0  
  x03 + x13 + x23 + x43 - x30 - x31 - x32 - x34 = 0
  x04 + x14 + x24 + x34 - x40 - x41 - x42 - x43 = 0 
  u1 - u2 + 5 x12 <= 4
  u1 - u3 + 5 x13 <= 4
  u1 - u4 + 5 x14 <= 4
  u2 - u1 + 5 x21 <= 4
  u2 - u3 + 5 x23 <= 4
  u2 - u4 + 5 x24 <= 4
  u3 - u1 + 5 x31 <= 4
  u3 - u2 + 5 x32 <= 4
  u3 - u4 + 5 x34 <= 4
  u4 - u1 + 5 x41 <= 4
  u4 - u2 + 5 x42 <= 4
  u4 - u3 + 5 x43 <= 4
  x00 + x10 + x20 + x30 + x40 - c01 >= 0 
  x01 + x11 + x21 + x31 + x41 - c11 >= 0
  x02 + x12 + x22 + x32 + x42 - c21 >= 0
  x03 + x13 + x23 + x33 + x43 - c31 >= 0
  x04 + x14 + x24 + x34 + x44 - c41 >= 0
  x00 + x10 + x20 + x30 + x40 - c04 >= 0
  x01 + x11 + x21 + x31 + x41 - c14 >= 0
  x02 + x12 + x22 + x32 + x42 - c24 >= 0
  x03 + x13 + x23 + x33 + x43 - c34 >= 0
  x04 + x14 + x24 + x34 + x44 - c44 >= 0
  x01 + x02 + x03 + x04 > 0
Bounds
  x02 = 0
  x13 = 0
  x14 = 0
  x20 = 0
  x24 = 0
  x31 = 0
  x41 = 0
  x42 = 0
  x11 = 0
  x00 = 0
  x22 = 0
  x33 = 0
  x44 = 0
Binary
  x00 x01 x02 x03 x04 x10 x11 x12 x13 x14 x20 x21 x22 x23 x24 x30 x31 x32 x33 x34 x40 x41 x42 x43 x44
  c01 c11 c21 c31 c41 c04 c14 c24 c34 c44
Integers
  u1 u2 u3 u4
End