take2.sol
# Objective value = 2.34
x01 0
x10 0
x12 0
x21 0
x23 0
x32 0
x34 0
x43 0
x40 1
x04 1
x03 0
x30 0
c01 1
c11 0
c21 0
c31 0
c41 0
c04 0
c14 0
c24 0
c34 0
c44 1
x20 0
x02 0
x31 0
x41 0
x13 0
x14 0
x42 0
x24 0
u1 0
u2 1
u3 0
u4 0
x00 0
x11 0
x22 0
x33 0
x44 0
